40 85 64 58 28 99 6 35 52 1 84 26 18 95 59 91 27 9 75 73 25 5 20 98 67 8 17 41 2 19 32 21 44 94 63 60 56 46 53 48 4 16 47 38 31 65 11 96 33 86 34 45 14 54 89 55 61 22 80 50 43 68 70 62 87 90 92 79 37 49 76 0 23 97 51 24 66 7 13 39 71 36 57 81 30 69 42 93 10 29 78 88 83 12 15 72 74 3 77 82 

